21° run output:
{
    "Function": "euclidA500.tsp",
    "Problem dimension": [
        464,
        256,
        413,
        349,
        95,
        70,
        499,
        398,
        460,
        44,
        169,
        182,
        257,
        161,
        267,
        285,
        38,
        15,
        363,
        203,
        463,
        384,
        452,
        173,
        121,
        410,
        113,
        303,
        489,
        284,
        19,
        202,
        311,
        245,
        162,
        263,
        214,
        276,
        40,
        271,
        279,
        381,
        493,
        53,
        33,
        124,
        478,
        333,
        376,
        191,
        391,
        469,
        393,
        104,
        255,
        269,
        315,
        272,
        483,
        323,
        134,
        379,
        209,
        289,
        308,
        347,
        388,
        362,
        110,
        352,
        98,
        32,
        22,
        238,
        150,
        55,
        488,
        243,
        51,
        345,
        175,
        87,
        354,
        430,
        417,
        481,
        84,
        96,
        252,
        197,
        358,
        140,
        157,
        187,
        71,
        487,
        273,
        138,
        318,
        164,
        320,
        494,
        412,
        416,
        317,
        350,
        343,
        307,
        321,
        281,
        339,
        172,
        420,
        227,
        159,
        153,
        52,
        171,
        282,
        419,
        302,
        365,
        226,
        133,
        80,
        457,
        36,
        448,
        286,
        340,
        409,
        142,
        390,
        132,
        436,
        444,
        57,
        8,
        13,
        25,
        112,
        160,
        361,
        139,
        91,
        385,
        67,
        437,
        223,
        99,
        275,
        237,
        74,
        496,
        185,
        369,
        486,
        151,
        309,
        458,
        442,
        129,
        428,
        265,
        27,
        293,
        401,
        495,
        106,
        248,
        453,
        143,
        61,
        4,
        219,
        232,
        305,
        498,
        461,
        404,
        189,
        81,
        374,
        210,
        183,
        100,
        45,
        190,
        18,
        135,
        414,
        299,
        395,
        450,
        389,
        224,
        319,
        0,
        403,
        396,
        479,
        177,
        254,
        380,
        63,
        462,
        42,
        290,
        212,
        443,
        193,
        324,
        43,
        111,
        73,
        68,
        125,
        264,
        206,
        359,
        199,
        346,
        490,
        192,
        241,
        7,
        353,
        127,
        144,
        233,
        11,
        262,
        368,
        49,
        344,
        373,
        196,
        332,
        310,
        294,
        370,
        476,
        94,
        261,
        39,
        337,
        258,
        118,
        259,
        222,
        5,
        425,
        24,
        152,
        280,
        372,
        449,
        336,
        47,
        433,
        351,
        470,
        480,
        455,
        163,
        424,
        329,
        366,
        188,
        93,
        484,
        387,
        440,
        34,
        122,
        170,
        10,
        274,
        158,
        434,
        472,
        28,
        108,
        234,
        26,
        392,
        283,
        1,
        194,
        50,
        76,
        473,
        447,
        216,
        154,
        62,
        168,
        451,
        58,
        421,
        217,
        155,
        377,
        288,
        2,
        266,
        37,
        292,
        330,
        83,
        325,
        115,
        221,
        400,
        220,
        291,
        180,
        492,
        208,
        149,
        109,
        117,
        201,
        438,
        246,
        394,
        386,
        378,
        445,
        249,
        77,
        435,
        418,
        48,
        12,
        296,
        426,
        247,
        101,
        72,
        466,
        240,
        130,
        56,
        322,
        120,
        491,
        239,
        229,
        415,
        66,
        277,
        105,
        298,
        439,
        174,
        85,
        328,
        231,
        167,
        260,
        454,
        82,
        334,
        348,
        405,
        20,
        21,
        268,
        301,
        316,
        86,
        179,
        407,
        382,
        97,
        441,
        176,
        375,
        65,
        6,
        78,
        485,
        165,
        60,
        335,
        497,
        331,
        251,
        468,
        16,
        306,
        137,
        64,
        31,
        92,
        211,
        471,
        218,
        23,
        41,
        3,
        207,
        46,
        90,
        371,
        186,
        465,
        250,
        297,
        178,
        14,
        356,
        383,
        244,
        17,
        198,
        312,
        147,
        148,
        278,
        423,
        54,
        29,
        30,
        35,
        432,
        126,
        156,
        225,
        236,
        477,
        213,
        287,
        69,
        131,
        88,
        475,
        215,
        184,
        427,
        341,
        102,
        431,
        119,
        364,
        146,
        360,
        429,
        357,
        205,
        300,
        9,
        230,
        397,
        242,
        204,
        123,
        327,
        195,
        145,
        107,
        89,
        482,
        253,
        459,
        103,
        314,
        228,
        235,
        399,
        342,
        456,
        128,
        114,
        467,
        313,
        411,
        474,
        75,
        116,
        326,
        141,
        270,
        406,
        446,
        422,
        59,
        200,
        304,
        166,
        355,
        136,
        408,
        295,
        367,
        181,
        402,
        338,
        79
    ],
    "Global Optimum": 0,
    "Algorithm": "Genetic algorithm",
    "Parameters": {
        "population": 30,
        "offspring": 30,
        "mutation probability": 0.002,
        "crossover probability": 0.9
    },
    "Fitness": 598346,
    "Solution": [
        464,
        256,
        413,
        349,
        95,
        70,
        499,
        398,
        460,
        44,
        169,
        182,
        257,
        161,
        267,
        285,
        38,
        15,
        363,
        203,
        463,
        384,
        452,
        173,
        121,
        410,
        113,
        303,
        489,
        284,
        19,
        202,
        311,
        245,
        162,
        263,
        214,
        276,
        40,
        271,
        279,
        381,
        493,
        53,
        33,
        124,
        478,
        333,
        376,
        191,
        391,
        469,
        393,
        104,
        255,
        269,
        315,
        272,
        483,
        323,
        134,
        379,
        209,
        289,
        308,
        347,
        388,
        362,
        110,
        352,
        98,
        32,
        22,
        238,
        150,
        55,
        488,
        243,
        51,
        345,
        175,
        87,
        354,
        430,
        417,
        481,
        84,
        96,
        252,
        197,
        358,
        140,
        157,
        187,
        71,
        487,
        273,
        138,
        318,
        164,
        320,
        494,
        412,
        416,
        317,
        350,
        343,
        307,
        321,
        281,
        339,
        172,
        420,
        227,
        159,
        153,
        52,
        171,
        282,
        419,
        302,
        365,
        226,
        133,
        80,
        457,
        36,
        448,
        286,
        340,
        409,
        142,
        390,
        132,
        436,
        444,
        57,
        8,
        13,
        25,
        112,
        160,
        361,
        139,
        91,
        385,
        67,
        437,
        223,
        99,
        275,
        237,
        74,
        496,
        185,
        369,
        486,
        151,
        309,
        458,
        442,
        129,
        428,
        265,
        27,
        293,
        401,
        495,
        106,
        248,
        453,
        143,
        61,
        4,
        219,
        232,
        305,
        498,
        461,
        404,
        189,
        81,
        374,
        210,
        183,
        100,
        45,
        190,
        18,
        135,
        414,
        299,
        395,
        450,
        389,
        224,
        319,
        0,
        403,
        396,
        479,
        177,
        254,
        380,
        63,
        462,
        42,
        290,
        212,
        443,
        193,
        324,
        43,
        111,
        73,
        68,
        125,
        264,
        206,
        359,
        199,
        346,
        490,
        192,
        241,
        7,
        353,
        127,
        144,
        233,
        11,
        262,
        368,
        49,
        344,
        373,
        196,
        332,
        310,
        294,
        370,
        476,
        94,
        261,
        39,
        337,
        258,
        118,
        259,
        222,
        5,
        425,
        24,
        152,
        280,
        372,
        449,
        336,
        47,
        433,
        351,
        470,
        480,
        455,
        163,
        424,
        329,
        366,
        188,
        93,
        484,
        387,
        440,
        34,
        122,
        170,
        10,
        274,
        158,
        434,
        472,
        28,
        108,
        234,
        26,
        392,
        283,
        1,
        194,
        50,
        76,
        473,
        447,
        216,
        154,
        62,
        168,
        451,
        58,
        421,
        217,
        155,
        377,
        288,
        2,
        266,
        37,
        292,
        330,
        83,
        325,
        115,
        221,
        400,
        220,
        291,
        180,
        492,
        208,
        149,
        109,
        117,
        201,
        438,
        246,
        394,
        386,
        378,
        445,
        249,
        77,
        435,
        418,
        48,
        12,
        296,
        426,
        247,
        101,
        72,
        466,
        240,
        130,
        56,
        322,
        120,
        491,
        239,
        229,
        415,
        66,
        277,
        105,
        298,
        439,
        174,
        85,
        328,
        231,
        167,
        260,
        454,
        82,
        334,
        348,
        405,
        20,
        21,
        268,
        301,
        316,
        86,
        179,
        407,
        382,
        97,
        441,
        176,
        375,
        65,
        6,
        78,
        485,
        165,
        60,
        335,
        497,
        331,
        251,
        468,
        16,
        306,
        137,
        64,
        31,
        92,
        211,
        471,
        218,
        23,
        41,
        3,
        207,
        46,
        90,
        371,
        186,
        465,
        250,
        297,
        178,
        14,
        356,
        383,
        244,
        17,
        198,
        312,
        147,
        148,
        278,
        423,
        54,
        29,
        30,
        35,
        432,
        126,
        156,
        225,
        236,
        477,
        213,
        287,
        69,
        131,
        88,
        475,
        215,
        184,
        427,
        341,
        102,
        431,
        119,
        364,
        146,
        360,
        429,
        357,
        205,
        300,
        9,
        230,
        397,
        242,
        204,
        123,
        327,
        195,
        145,
        107,
        89,
        482,
        253,
        459,
        103,
        314,
        228,
        235,
        399,
        342,
        456,
        128,
        114,
        467,
        313,
        411,
        474,
        75,
        116,
        326,
        141,
        270,
        406,
        446,
        422,
        59,
        200,
        304,
        166,
        355,
        136,
        408,
        295,
        367,
        181,
        402,
        338,
        79
    ],
    "Nb of functions evaluations": 200010,
    "Computational time in seconds": 1025.426738500595,
    "Stopping criterion in evaluations": 200000
}